<instance format="XCSP3" type="CSP">
  <variables>
    <var id="x0"> 0 1 3 </var>
    <var id="x1"> 1 3 7 13 </var>
    <var id="x2"> 2 7 13 </var>
    <var id="x3"> 1 7 10 </var>
    <var id="x4"> 1 3 10 13 </var>
    <var id="x5"> 0 3 7 13 </var>
    <var id="x6"> 0 2 10 13 </var>
    <var id="x7"> 2 6 9 </var>
    <var id="x8"> 1 2 5 6 9 </var>
    <var id="x9"> 5 6 </var>
    <var id="x10"> 1 4 6 11 </var>
    <var id="x11"> 2 4 </var>
    <var id="x12"> 1 5 6 11 </var>
    <var id="x13"> 1 4 9 11 </var>
    <var id="x14"> 3 9 11 </var>
    <var id="x15"> 3 9 10 13 </var>
    <var id="x16"> 3 7..9 13 </var>
    <var id="x17"> 7 9 11 13 </var>
    <var id="x18"> 7..10 </var>
    <var id="x19"> 8 10 11 </var>
    <var id="x20"> 7 9 11 13 </var>
    <var id="x21"> 2 6 9 13 </var>
    <var id="x22"> 1 7..9 </var>
    <var id="x23"> 1 9 11 13 </var>
    <var id="x24"> 6 7 13 </var>
    <var id="x25"> 1 6 8 11 </var>
    <var id="x26"> 2 13 </var>
    <var id="x27"> 1 7 11 </var>
    <var id="x28"> 1 2 8 11 </var>
    <var id="x29"> 1 9 </var>
    <var id="x30"> 2 5 9 13 </var>
    <var id="x31"> 1 9 10 13 </var>
    <var id="x32"> 1 2 5 9 10 13 </var>
    <var id="x33"> 1 10 14 </var>
    <var id="x34"> 1 10 14 </var>
    <var id="x35"> 1 2 5 10 14 </var>
    <var id="x36"> 0 1 6 9 12 </var>
    <var id="x37"> 1 8 9 14 </var>
    <var id="x38"> 1 8 9 14 </var>
    <var id="x39"> 1 6 9 </var>
    <var id="x40"> 0 6 12 </var>
    <var id="x41"> 0 1 6 </var>
    <var id="x42"> 1 9 12 </var>
    <var id="x43"> 1 3 9 11 </var>
    <var id="x44"> 3 5 7 </var>
    <var id="x45"> 1 10 11 </var>
    <var id="x46"> 1 3 7 10 11 </var>
    <var id="x47"> 1 5 7 10 11 </var>
    <var id="x48"> 1 3 9..11 </var>
    <var id="x49"> 1 5 7 9 11 </var>
    <var id="x50"> 1 9 13 14 </var>
    <var id="x51"> 1 9 10 14 </var>
    <var id="x52"> 13 </var>
    <var id="x53"> 4 10 13 14 </var>
    <var id="x54"> 1 4 10 11 14 </var>
    <var id="x55"> 1 4 9..11 </var>
    <var id="x56"> 1 9 11 13 </var>
    <var id="x57"> 3 10 14 </var>
    <var id="x58"> 4 5 </var>
    <var id="x59"> 1 5 10 </var>
    <var id="x60"> 1 4 10 14 </var>
    <var id="x61"> 1 3 4 10 12 14 </var>
    <var id="x62"> 1 5 10 </var>
    <var id="x63"> 1 5 10 14 </var>
    <var id="x64"> 10 13 14 </var>
    <var id="x65"> 1 5 10 14 </var>
    <var id="x66"> 5 12 13 </var>
    <var id="x67"> 1 4 10 12 14 </var>
    <var id="x68"> 1 4 10 12 </var>
    <var id="x69"> 1 5 13 </var>
    <var id="x70"> 1 5 10 14 </var>
    <var id="x71"> 7 9 14 </var>
    <var id="x72"> 7 9 11 </var>
    <var id="x73"> 9..11 </var>
    <var id="x74"> 6 9 10 </var>
    <var id="x75"> 0 10 14 </var>
    <var id="x76"> 7 10 11 14 </var>
    <var id="x77"> 0 7 9 11 </var>
    <var id="x78"> 1 6 11 </var>
    <var id="x79"> 6 10 13 14 </var>
    <var id="x80"> 1 7 13 14 </var>
    <var id="x81"> 1 10 11 13 </var>
    <var id="x82"> 1 6 10 13 </var>
    <var id="x83"> 1 6 7 10 11 </var>
    <var id="x84"> 1 10 11 </var>
    <var id="x85"> 0 3 6 12 </var>
    <var id="x86"> 3 6 10 </var>
    <var id="x87"> 3 8 </var>
    <var id="x88"> 3 10 12 </var>
    <var id="x89"> 0 5 6 10 </var>
    <var id="x90"> 0 5 </var>
    <var id="x91"> 5 8 10 </var>
    <var id="x92"> 5 9 11 13 </var>
    <var id="x93"> 1 5 9 </var>
    <var id="x94"> 12 13 </var>
    <var id="x95"> 1 3 11 12 </var>
    <var id="x96"> 1 5 11 </var>
    <var id="x97"> 1 5 9 11 13 </var>
    <var id="x98"> 1 5 11 </var>
    <var id="x99"> 2 4 7 11 </var>
    <var id="x100"> 3 11 12 </var>
    <var id="x101"> 2 </var>
    <var id="x102"> 4 11 </var>
    <var id="x103"> 0 2 4 12 </var>
    <var id="x104"> 3 4 11 12 </var>
    <var id="x105"> 2 11 </var>
  </variables>
  <constraints>
    <group>
      <allDifferent> %... </allDifferent>
      <args> x0 x1 x2 x3 x4 x5 x6 </args>
      <args> x7 x8 x9 x10 x11 x12 x13 </args>
      <args> x14 x15 x16 x17 x18 x19 x20 </args>
      <args> x21 x22 x23 x24 x25 x26 x27 x28 </args>
      <args> x29 x30 x31 x32 x33 x34 x35 </args>
      <args> x36 x37 x38 x39 x40 x41 x42 </args>
      <args> x43 x44 x45 x46 x47 x48 x49 </args>
      <args> x50 x51 x52 x53 x54 x55 x56 </args>
      <args> x57 x58 x59 x60 x61 x62 x63 </args>
      <args> x64 x65 x66 x67 x68 x69 x70 </args>
      <args> x71 x72 x73 x74 x75 x76 x77 </args>
      <args> x78 x79 x80 x81 x82 x83 x84 </args>
      <args> x85 x86 x87 x88 x89 x90 x91 </args>
      <args> x92 x93 x94 x95 x96 x97 x98 </args>
      <args> x99 x100 x101 x102 x103 x104 x105 </args>
      <args> x0 x14 x29 x36 x43 x78 x85 </args>
      <args> x7 x15 x21 x57 x64 x79 x86 </args>
      <args> x1 x16 x37 x50 x71 x80 x87 </args>
      <args> x2 x17 x30 x58 x72 x92 x99 </args>
      <args> x3 x18 x22 x38 x51 x65 x93 </args>
      <args> x4 x23 x31 x73 x81 x88 x100 </args>
      <args> x8 x32 x39 x59 x74 x82 x101 </args>
      <args> x5 x9 x24 x40 x44 x52 x66 </args>
      <args> x10 x19 x25 x33 x45 x60 x102 </args>
      <args> x6 x11 x26 x53 x75 x94 x103 </args>
      <args> x27 x34 x46 x54 x61 x67 x76 x95 </args>
      <args> x12 x41 x47 x62 x83 x89 x96 </args>
      <args> x13 x42 x48 x55 x68 x84 x104 </args>
      <args> x20 x49 x56 x69 x77 x90 x97 </args>
      <args> x28 x35 x63 x70 x91 x98 x105 </args>
    </group>
  </constraints>
</instance>

